p cnf 29 24
-1 10 11 12 13 14 15 16 17 18 19 20 21 22 23 24 25 29 0 
-2 29 0 
-3 -4 29 0 
-5 28 29 0 
-6 29 0 
-7 -8 -9 29 0 
-10 1 11 12 13 14 15 16 17 18 19 20 21 22 23 24 25 29 0 
-11 1 10 12 13 14 15 16 17 18 19 20 21 22 23 24 25 29 0 
-12 1 10 11 13 14 15 16 17 18 19 20 21 22 23 24 25 29 0 
-13 1 10 11 12 14 15 16 17 18 19 20 21 22 23 24 25 29 0 
-14 1 10 11 12 13 15 16 17 18 19 20 21 22 23 24 25 29 0 
-15 1 10 11 12 13 14 16 17 18 19 20 21 22 23 24 25 29 0 
-16 1 10 11 12 13 14 15 17 18 19 20 21 22 23 24 25 29 0 
-17 1 10 11 12 13 14 15 16 18 19 20 21 22 23 24 25 29 0 
-18 1 10 11 12 13 14 15 16 17 19 20 21 22 23 24 25 29 0 
-19 1 10 11 12 13 14 15 16 17 18 20 21 22 23 24 25 29 0 
-20 1 10 11 12 13 14 15 16 17 18 19 21 22 23 24 25 29 0 
-21 1 10 11 12 13 14 15 16 17 18 19 20 22 23 24 25 29 0 
-22 1 10 11 12 13 14 15 16 17 18 19 20 21 23 24 25 29 0 
-23 1 10 11 12 13 14 15 16 17 18 19 20 21 22 24 25 29 0 
-24 1 10 11 12 13 14 15 16 17 18 19 20 21 22 23 25 29 0 
-25 1 10 11 12 13 14 15 16 17 18 19 20 21 22 23 24 29 0 
-26 -27 29 0 
-28 5 29 0 
